ITEM = 1..20;
capacity1 = 160;
capacity2 = 160;
capacity3 = 160;
profits = [23, 20, 21, 26, 46, 30, 30, 56, 30, 45, 33, 96, 40, 69, 35, 31, 27, 44, 60, 58];
weights = [62, 14, 11, 25, 40, 35, 38, 82, 42, 74, 24, 95, 44, 81, 27, 25, 34, 73, 54, 81];
